
Gurobi 10.0.2 (win64, Python) logging started Thu Sep 21 20:16:03 2023

Set parameter Username
Set parameter LogFile to value "gurobi.log"
Academic license - for non-commercial use only - expires 2024-09-06
